!Put Keywords Here, check Charge and Multiplicity.
#

 Title Card Required

0  2
C          -0.44660        -4.83260         0.02380
C          -0.25650        -2.62940         0.85520
C          -1.79140        -2.49170         0.78880
C          -2.38080        -3.88380         1.00090
H          -0.11400        -5.25640         0.98050
H           0.05750        -3.02730         1.83070
H          -2.07570        -2.17610        -0.22590
H          -2.15780        -4.27140         2.00230
H          -3.47180        -3.85000         0.91280
O          -1.87430        -4.76720         0.00660
O           0.14070        -3.54050        -0.15970
C           0.42770        -1.25110         0.66560
H           0.31490        -0.88570        -0.36170
C          -0.23450        -0.27290         1.63870
H           0.04140        -0.54730         2.66820
C          -1.72790        -0.25890         1.44830
O          -2.30480        -1.53170         1.72900
O          -2.19320         0.82500         2.21280
O           0.04820         1.10590         1.46100
C          -1.09370         1.71000         2.06930
H          -1.41290         2.58140         1.48430
O           1.82120        -1.26650         1.00870
C           2.65350        -1.95660         0.07610
H           3.69440        -1.84440         0.40320
H           2.44280        -3.02810         0.10550
O           2.49810        -1.48470        -1.25430
C           3.18080        -0.26110        -1.47450
H           4.25610        -0.38090        -1.30650
H           3.02440         0.03250        -2.51770
H           2.78030         0.52690        -0.82770
C           0.02480        -5.69560        -1.12150
C          -0.32010        -5.37930        -2.44650
C           0.84990        -6.80620        -0.88920
C           0.14900        -6.15230        -3.51010
H          -0.95340        -4.51810        -2.65330
C           1.31740        -7.57930        -1.95490
H           1.14260        -7.07880         0.12210
C           0.96800        -7.25090        -3.26320
H          -0.12100        -5.89410        -4.53090
H           1.95850        -8.43670        -1.76580
H           1.33620        -7.85130        -4.09170
H          -1.97690        -0.00090         0.40500
C          -3.38390         1.01710         2.85600
H          -3.42750         0.33910         3.71610
H          -3.50510         2.04570         3.19900
H          -4.21070         0.68880         2.21930
H          -0.84210         2.13100         3.05100

